p wcnf 134 67 68 
1 -124 25 0 
1 9 -29 0 
1 -96 -130 0 
1 -115 38 0 
1 -128 -117 0 
1 91 -3 0 
1 -94 103 0 
1 -113 126 0 
1 35 -42 0 
1 -38 -74 0 
1 -13 -44 0 
1 -86 68 0 
1 -16 59 0 
1 -102 -100 0 
1 39 62 0 
1 -39 22 0 
1 -115 8 0 
1 98 132 0 
1 -74 29 0 
1 -17 -2 0 
1 131 52 0 
1 -96 72 0 
1 -60 96 0 
1 -4 -41 0 
1 -9 -6 0 
1 -5 20 0 
1 48 1 0 
1 -20 -116 0 
1 -21 -38 0 
1 -41 84 0 
1 -76 -88 0 
1 -31 111 0 
1 26 -42 0 
1 -82 -29 0 
1 -52 -121 0 
1 -86 -105 0 
1 109 31 0 
1 32 9 0 
1 -131 56 0 
1 29 45 0 
1 120 -36 0 
1 35 -50 0 
1 127 -80 0 
1 -112 121 0 
1 96 -44 0 
1 55 80 0 
1 117 -69 0 
1 23 115 0 
1 -23 -14 0 
1 -130 -6 0 
1 104 59 0 
1 77 -62 0 
1 17 130 0 
1 96 78 0 
1 -62 -93 0 
1 -39 -116 0 
1 -53 43 0 
1 17 -11 0 
1 31 104 0 
1 -58 -27 0 
1 25 -52 0 
1 -88 48 0 
1 -62 -76 0 
1 99 -112 0 
1 -108 120 0 
1 -85 -102 0 
1 -97 -70 0 
